TYPE : Vertex Cover
DIMENSION: 28
EDGE_DATA_SECTION:
0 6
0 12
0 17
0 24
1 7
1 8
1 14
1 24
2 14
2 18
2 25
3 11
3 13
4 6
4 15
4 23
4 24
5 6
5 13
5 20
5 26
6 15
6 22
7 12
7 14
7 15
7 24
7 26
9 12
9 14
9 15
9 25
10 22
11 13
11 15
11 17
12 13
13 18
13 22
13 23
14 22
14 24
15 16
16 17
16 22
16 23
17 18
17 20
17 21
18 21
18 24
18 25
18 27
19 27
20 21
20 27
23 24
24 26
25 27
26 27
-1
VERTEX_DEGREE:
4.0 4.0 3.0 2.0 4.0 4.0 5.0 6.0 1.0 4.0 1.0 4.0 4.0 7.0 6.0 6.0 4.0 6.0 7.0 1.0 4.0 3.0 5.0 4.0 8.0 4.0 4.0 5.0
VERTEX_COVER:
1 6 11 12 13 14 15 17 18 20 22 23 24 25 26 27
EOF
